44,54
78,88
52,62
15,25
30,40
48,58
16,26
99,109
32,42
88,98
43,53
31,41
35,45
78,88
84,94
90,100
14,24
29,39
82,92
89,99
77,87
13,23
85,95
44,54
42,52
76,86
12,22
90,100
32,42
38,48
87,97
32,42
87,97
79,89
49,59
39,49
99,109
70,80
88,98
27,37
32,42
24,34
53,63
77,87
83,93
35,45
15,25
93,103
10,20
94,104
15,25
77,87
78,88
73,83
47,57
37,47
18,28
99,109
40,50
60,70
26,36
34,44
45,55
73,83
11,21
77,87
45,55
40,50
39,49
73,83
16,26
35,45
17,27
57,67
88,98

188
173
188
209
199
202
172
230
225
